%%% static parameters %%%
timespan = 1;
Clients_N = [4000];
Demand_W = [15];
Lt0 = [4];
Lt1 = [4];
SS_ = [0.85];
DS_D = [20];
K = [200];
MA = [500];
HC = [0.05];
%%% dynamic parameters %%%
lost_ratio_sales_ret_th = 6.475882028010804e-05;
lost_ratio_sales_ret_w = 92;
lost_ratio_sales_dis_th = 0.0009203101948253989;
lost_ratio_sales_dis_w = 86;
lost_ratio_sales_fac_th = 0.00023109628657033623;
lost_ratio_sales_fac_w = 62;
stock_customer_MA_mean_relative_th = 0.1568729711497291;
stock_customer_MA_mean_relative_w = 46;
stock_distributor_MA_mean_relative_th = 0.2743727380105778;
stock_distributor_MA_mean_relative_w = 80;
stock_retailer_MA_mean_relative_th = 0.3902776235797416;
stock_retailer_MA_mean_relative_w = 12;
stock_factory_MA_mean_relative_th = 0.3329898842958391;
stock_factory_MA_mean_relative_w = 13;
